
Gurobi 12.0.2 (win64) logging started Sun Jun  8 11:32:39 2025

Set parameter LogFile to value "C:\Ioana\_uni\honours\slp\algorithm\Main_files\results\others\prox_tubules_new_model\Task_004_Sample003_irr_gurobi.log"
Gurobi Optimizer version 12.0.2 build v12.0.2rc0 (win64 - Windows 11.0 (26100.2))

CPU model: Intel(R) Core(TM) Ultra 5 125H, instruction set [SSE2|AVX|AVX2]
Thread count: 14 physical cores, 18 logical processors, using up to 18 threads

Non-default parameters:
TimeLimit  2200

Optimize a model with 47226 rows, 34499 columns and 146686 nonzeros
Model fingerprint: 0x5e6d0bf1
Variable types: 17254 continuous, 17245 integer (17245 binary)
Coefficient statistics:
  Matrix range     [1e-04, 8e+04]
  Objective range  [2e-04, 9e-01]
  Bounds range     [1e+00, 1e+03]
  RHS range        [1e+00, 1e+00]
Presolve removed 30770 rows and 21541 columns
Presolve time: 0.30s
Presolved: 16456 rows, 12958 columns, 54692 nonzeros
Variable types: 6412 continuous, 6546 integer (6546 binary)

Root relaxation: objective 1.100062e-01, 335 iterations, 0.02 seconds (0.02 work units)

    Nodes    |    Current Node    |     Objective Bounds      |     Work
 Expl Unexpl |  Obj  Depth IntInf | Incumbent    BestBd   Gap | It/Node Time

     0     0    0.11001    0    9          -    0.11001      -     -    0s
H    0     0                       0.2006963    0.11001  45.2%     -    0s
     0     0    0.15770    0   15    0.20070    0.15770  21.4%     -    0s
     0     0    0.19515    0    2    0.20070    0.19515  2.76%     -    0s

Cutting planes:
  Flow cover: 1

Explored 1 nodes (876 simplex iterations) in 0.66 seconds (0.64 work units)
Thread count was 18 (of 18 available processors)

Solution count 1: 0.200696 

Optimal solution found (tolerance 1.00e-04)
Best objective 2.006963017828e-01, best bound 2.006963017828e-01, gap 0.0000%
